NAME : n60w100.003.610.tour
COMMENT : Length = 610
COMMENT : Found by LKH [Keld Helsgaun] Tue May  2 05:46:15 2017
TYPE : TOUR
DIMENSION : 61
TOUR_SECTION
1
10
56
4
2
25
33
7
41
31
45
55
22
37
9
17
23
51
15
36
6
12
18
60
30
27
20
29
42
52
53
34
59
44
47
8
58
46
16
43
57
39
40
49
21
13
48
14
3
19
32
5
54
28
50
24
26
11
35
38
61
-1
EOF
